p min 13 16
n 11 -1
n 12 1
a 2 3 0 1 0
a 2 7 0 1 -100
a 2 13 0 1 0
a 3 4 0 1 0
a 3 8 0 1 -100
a 3 13 0 1 52378
a 4 5 0 1 0
a 4 9 0 1 -100
a 5 10 0 1 -100
a 6 7 0 1 -100
a 7 8 0 1 -100
a 8 9 0 1 -100
a 9 10 0 1 -100
a 10 11 0 1 -100
a 12 4 0 1 0
a 13 5 0 1 -94140
